62	62	62	62	62	62	62	62	62	62	62	62	62	62	62	62	62	62	62	62	62	62	62	62	62	62	62	62	62	62	62	62	62	62	62	62	62	62	62	62	62	62	62	62	62	62	62	62	62	62	62	62	62	62	62	62	62	62	62	62	62	62	62	62	62	62	62	62	62	
62	62	62	62	62	62	62	62	62	62	62	62	62	62	62	62	62	62	62	62	62	62	62	62	62	62	62	62	62	62	62	62	62	62	62	62	62	62	62	62	62	62	62	62	62	62	62	62	62	62	62	62	62	62	62	62	62	62	62	62	62	62	62	62	62	62	62	62	62	
62	62	62	62	62	62	62	62	62	62	62	62	62	62	62	62	62	62	62	62	62	62	62	62	62	62	62	62	62	62	62	62	62	62	62	62	62	62	62	62	62	62	62	62	62	62	62	62	62	62	62	62	62	62	62	62	62	62	62	62	62	62	62	62	62	62	62	62	62	
62	62	62	62	62	62	62	62	62	62	62	62	62	62	62	62	62	62	62	62	62	62	62	62	62	62	62	62	62	62	62	62	62	62	62	62	62	62	62	62	62	62	62	62	62	62	62	62	62	62	62	62	62	62	62	62	62	62	62	62	62	62	62	62	62	62	62	62	62	
62	62	62	62	62	62	62	62	62	62	62	62	62	62	62	62	62	62	62	62	62	62	62	62	62	62	62	62	62	62	62	62	62	62	62	62	62	62	62	62	62	62	62	62	62	62	62	62	62	62	62	62	62	62	62	62	62	62	62	62	62	62	62	62	62	62	62	62	62	
62	62	62	62	62	62	62	62	62	62	62	62	62	62	62	62	62	62	62	62	62	62	62	62	62	62	62	62	62	62	62	62	62	62	62	62	62	62	62	62	62	62	62	62	62	62	62	62	62	62	62	62	62	62	62	62	62	62	62	62	62	62	62	62	62	62	62	62	62	
62	62	62	62	62	62	62	62	62	62	62	62	62	62	62	62	62	62	62	62	62	62	62	62	62	62	62	62	62	62	62	62	62	62	62	89	89	89	62	62	62	62	62	62	62	62	62	62	62	62	62	62	62	62	62	62	62	62	62	62	62	62	62	62	62	62	62	62	62	
62	62	62	62	62	62	62	62	62	62	62	62	62	62	62	62	62	62	62	62	62	62	62	62	62	65	65	62	62	62	62	62	62	62	89	89	89	89	89	62	62	62	62	62	62	62	62	62	62	62	62	62	62	62	62	62	62	62	62	62	62	62	62	62	62	62	62	62	62	
62	62	62	62	62	62	62	62	62	62	62	62	62	119	62	119	62	62	62	62	62	62	62	62	65	65	65	65	62	62	62	62	62	62	89	89	89	89	89	89	62	62	62	62	62	62	62	62	62	62	62	62	62	62	62	62	62	119	129	62	62	62	62	62	62	62	62	62	62	
62	62	62	62	62	62	62	62	62	62	62	62	62	62	62	62	62	62	62	62	62	62	62	136	17	17	16	16	16	62	62	62	62	89	89	89	89	89	77	89	89	89	89	62	62	62	62	62	62	62	62	62	62	62	62	62	62	62	62	62	62	62	62	62	62	62	62	62	62	
62	62	62	62	62	62	62	62	62	62	62	62	62	139	62	139	62	62	62	62	62	62	62	62	17	17	17	16	62	62	62	62	89	89	89	89	89	89	77	77	77	77	89	62	62	62	62	62	62	62	62	62	62	62	62	62	62	119	125	62	62	62	62	62	62	62	62	62	62	
62	62	62	62	62	62	62	62	62	62	62	62	62	62	62	62	62	62	62	62	62	62	62	62	62	136	136	62	62	62	62	139	139	139	139	139	139	139	139	139	139	62	89	65	65	62	62	62	62	62	62	62	62	62	62	62	62	62	62	62	62	62	62	62	62	62	62	62	62	
62	62	62	62	62	62	62	62	62	62	62	62	62	62	62	62	62	62	62	62	62	62	62	62	62	62	62	62	62	62	62	139	139	139	139	139	139	139	139	139	139	62	62	65	65	62	62	62	62	62	62	62	62	62	62	62	62	62	62	62	62	62	62	62	62	62	62	62	62	
62	62	62	62	62	62	62	62	62	62	62	62	62	62	62	62	62	62	62	62	62	62	62	62	62	62	62	62	62	62	62	139	91	91	91	91	91	91	91	139	139	62	62	62	62	62	62	62	62	62	62	62	62	62	62	62	62	62	62	62	62	62	62	62	62	62	62	62	62	
62	62	62	62	62	62	62	62	62	62	62	62	62	62	62	62	62	62	62	62	62	62	62	62	62	62	62	62	62	62	62	139	91	91	65	91	91	65	91	91	139	139	62	62	62	62	62	62	62	62	62	62	62	62	62	62	62	62	62	62	62	62	62	62	62	62	62	62	62	
62	62	62	62	62	62	62	62	62	62	62	62	62	62	62	62	62	62	62	62	62	62	62	62	62	62	62	62	62	62	62	62	91	91	13	8	91	91	91	91	139	139	62	62	62	62	62	62	62	62	62	62	62	62	62	62	62	62	62	62	62	62	62	62	62	62	62	62	62	
62	62	62	62	62	62	62	62	62	62	62	62	62	62	62	62	62	62	62	62	91	91	91	135	62	62	62	62	62	62	62	139	91	91	139	139	139	139	91	91	139	62	62	62	62	62	62	62	62	62	62	62	62	62	62	62	62	62	62	62	62	62	62	62	62	62	62	62	62	
62	62	62	62	62	62	62	62	62	62	62	62	62	62	62	62	62	62	62	62	91	91	91	135	62	62	62	62	62	62	62	139	139	139	91	91	91	91	139	139	139	62	62	62	62	62	62	62	62	62	62	62	62	62	62	62	62	62	62	62	62	62	62	62	62	62	62	62	62	
62	62	62	62	62	62	62	62	62	62	62	62	62	62	62	62	62	62	62	62	91	91	91	91	62	62	62	62	62	62	139	139	139	139	139	139	139	139	139	139	139	62	62	62	62	62	62	62	62	62	139	62	139	62	62	62	62	62	62	62	62	62	62	62	62	62	62	62	62	
62	62	62	62	62	62	62	62	62	62	62	62	122	65	62	62	62	62	62	62	91	91	91	91	62	62	62	62	62	62	139	139	139	139	139	139	139	139	139	139	139	62	62	62	62	62	62	62	62	62	62	62	62	62	62	62	62	62	62	62	62	62	62	62	62	62	62	62	62	
62	62	62	62	62	62	62	62	62	62	62	62	65	65	65	62	62	62	62	139	139	139	139	139	62	62	62	62	62	139	139	139	139	139	139	139	139	139	139	139	139	139	62	62	62	62	62	62	62	62	139	62	139	62	62	62	62	62	62	62	62	62	62	62	62	62	62	62	62	
62	62	62	62	62	62	62	62	62	62	62	5	89	77	77	77	62	62	62	139	139	139	139	139	62	62	62	62	89	89	139	139	139	139	139	139	139	139	139	139	139	62	89	89	62	62	62	62	62	62	62	62	62	62	62	62	62	62	62	62	62	62	62	62	62	62	62	62	62	
62	62	62	62	62	62	62	62	62	62	62	62	83	87	82	62	62	62	62	62	89	89	89	89	62	62	62	89	89	89	89	139	139	139	139	139	139	139	139	139	62	89	89	89	89	89	62	62	62	62	62	62	62	62	62	62	62	62	62	62	62	62	62	62	62	62	62	62	62	
62	62	62	62	62	62	62	62	62	62	62	62	62	62	62	62	62	62	62	62	89	89	89	89	62	89	89	89	89	89	89	89	139	139	139	139	139	139	62	62	89	89	89	89	89	89	89	62	62	62	62	62	62	62	62	62	62	62	62	62	62	62	62	62	62	62	62	62	62	
62	62	62	62	62	62	62	62	62	62	62	62	62	62	62	62	62	62	62	62	89	89	89	89	77	89	89	89	77	89	89	89	89	89	62	139	139	62	89	89	89	89	89	89	89	89	89	62	62	62	62	62	62	62	62	62	62	62	62	62	62	62	62	62	62	62	62	62	62	
62	62	62	62	62	62	62	62	62	62	62	62	62	62	62	62	62	62	62	62	89	89	89	89	89	77	89	89	77	89	89	89	89	89	89	62	62	89	89	89	89	89	89	89	89	89	89	62	62	62	65	62	62	62	62	62	62	62	62	62	62	62	62	62	62	62	62	62	62	
62	62	62	62	62	62	62	62	62	62	62	62	62	62	62	62	62	46	62	62	89	89	89	89	89	89	89	77	77	89	89	89	89	89	89	114	89	89	89	89	89	77	89	89	89	89	77	62	62	65	65	65	62	62	62	62	62	62	62	62	62	62	62	62	62	62	62	62	62	
62	62	62	62	62	62	62	62	62	62	62	62	62	62	62	62	46	46	46	62	4	89	89	89	89	77	77	77	89	89	89	89	89	89	89	114	89	89	89	89	89	77	89	89	89	89	77	62	89	89	89	77	77	62	62	62	62	62	62	62	62	62	62	62	62	62	62	62	62	
62	62	62	62	62	62	62	62	62	62	62	62	62	62	62	62	46	46	46	62	77	77	89	77	77	77	77	62	89	89	89	89	89	89	89	114	89	89	89	89	89	77	89	89	89	89	77	62	62	89	89	77	62	62	62	62	62	62	62	62	62	62	62	62	62	62	62	62	62	
62	62	62	62	62	62	62	62	62	62	62	62	62	62	46	46	46	46	46	46	62	77	77	77	77	62	62	62	89	89	89	89	89	89	89	114	89	89	89	89	89	77	89	89	89	89	77	62	62	62	89	122	62	62	62	62	62	62	62	62	62	62	62	62	62	62	62	62	62	
62	62	62	62	62	62	62	62	62	62	62	62	62	46	46	46	46	46	46	46	46	62	62	62	62	62	62	62	65	65	65	65	65	65	65	17	17	65	65	65	65	65	89	89	89	89	77	62	62	62	62	62	62	62	62	62	62	62	62	62	62	62	62	62	62	62	62	62	62	
62	62	62	62	62	62	62	62	62	62	62	62	46	46	46	46	46	46	46	46	46	46	62	62	62	62	62	62	65	65	65	65	65	65	65	17	16	65	65	65	65	65	89	89	89	89	77	62	62	62	62	62	62	62	62	62	62	62	62	62	62	62	62	62	62	62	62	62	62	
62	62	62	62	62	62	62	62	62	62	62	62	62	62	46	46	46	46	46	46	62	62	62	62	62	62	62	62	65	65	65	73	65	65	65	17	17	65	65	65	65	65	89	89	89	89	77	62	62	62	62	62	62	62	62	62	62	62	62	62	62	62	62	62	62	62	62	62	62	
62	62	62	62	62	62	62	62	62	62	62	62	62	62	62	46	46	46	46	46	62	62	62	62	62	62	62	62	89	89	89	89	89	89	89	113	89	89	89	89	89	77	89	89	89	89	77	62	62	62	62	62	62	46	63	62	62	62	62	62	62	62	62	62	62	62	62	62	62	
62	62	62	62	62	62	62	62	62	62	62	62	62	62	46	46	46	46	46	46	62	62	62	62	62	62	62	62	89	89	89	89	89	89	89	113	89	89	89	89	89	77	89	89	89	89	77	62	62	62	62	62	46	46	46	62	62	62	62	62	62	62	62	62	62	62	62	62	62	
62	62	62	62	62	62	62	62	62	62	62	62	62	46	46	46	46	46	46	46	46	62	62	62	62	62	62	62	89	89	89	89	89	89	89	113	89	89	89	89	89	77	89	89	89	89	77	62	62	62	62	46	46	46	46	46	62	62	62	62	62	62	62	62	62	62	62	62	62	
62	62	62	62	62	62	62	62	62	62	62	62	46	46	46	46	46	46	46	46	46	46	62	62	62	62	62	62	89	89	89	89	89	89	89	113	89	89	89	89	89	77	89	89	89	89	77	62	62	62	46	46	46	46	46	46	62	62	62	62	62	62	62	62	62	62	62	62	62	
62	62	62	62	62	62	62	62	62	62	62	46	46	46	46	46	46	46	46	46	46	46	46	62	62	62	62	139	130	130	130	130	130	130	130	139	139	139	139	139	139	62	89	89	89	89	77	62	62	46	46	46	46	46	46	46	46	62	62	62	62	62	62	62	62	62	62	62	62	
62	62	62	62	62	62	62	62	62	62	62	62	62	46	46	46	46	46	46	46	46	62	62	62	62	62	62	139	139	139	139	139	139	139	139	139	139	139	139	139	139	62	130	139	139	139	139	139	46	46	46	46	46	46	46	46	46	46	62	62	62	62	62	62	62	62	62	62	62	
62	62	62	62	62	62	62	62	62	62	62	62	62	62	46	21	46	46	46	46	62	62	62	62	62	62	62	139	139	139	139	139	139	139	139	139	139	139	139	139	139	62	139	139	139	139	139	139	62	62	46	46	46	46	46	46	63	62	62	62	62	62	62	62	62	62	62	62	62	
62	62	62	62	62	62	62	62	62	62	62	62	38	46	16	16	15	46	46	16	31	42	62	62	62	62	62	62	62	77	77	77	77	77	77	62	62	77	77	77	87	77	91	91	91	91	62	62	62	62	62	46	46	46	46	46	62	62	62	62	62	62	62	62	62	62	62	62	62	
62	62	62	62	62	62	62	62	62	62	62	62	46	46	16	16	15	46	15	16	16	46	62	62	62	62	62	62	62	77	77	77	77	77	77	62	62	77	77	77	87	77	91	91	91	62	62	62	62	62	46	46	46	46	46	46	62	62	62	62	62	62	62	62	62	62	62	62	62	
62	62	62	62	62	62	62	62	62	62	62	46	46	46	16	16	16	15	16	16	16	46	46	62	62	62	62	62	62	77	77	77	77	77	77	62	62	77	77	77	77	77	87	62	62	62	62	62	62	46	46	46	46	46	46	46	46	62	62	62	62	62	62	62	62	62	62	62	62	
62	62	62	62	62	62	62	62	62	62	46	46	46	46	46	16	16	16	16	16	26	46	46	46	62	62	62	62	62	77	77	77	77	77	77	62	62	87	77	77	77	77	77	62	62	62	62	62	46	46	46	46	46	46	46	46	46	46	62	62	62	62	62	62	62	62	62	62	62	
62	62	62	62	62	62	62	62	62	62	62	62	62	46	46	46	89	89	89	14	46	62	62	62	62	62	62	62	62	89	89	89	77	77	77	62	62	89	89	89	77	77	77	62	62	62	62	46	46	46	46	46	46	46	46	46	46	46	46	62	62	62	62	62	62	62	62	62	62	
62	62	62	62	62	62	62	62	62	62	62	62	62	62	46	16	89	16	16	16	15	15	62	62	62	62	62	62	62	89	89	89	89	77	77	62	62	89	89	89	89	77	77	62	62	62	62	62	62	41	46	46	46	46	46	46	41	62	62	62	62	62	62	62	62	62	62	62	62	
62	62	62	62	62	62	62	62	62	62	62	62	62	62	16	89	16	89	16	16	16	16	15	62	62	62	62	62	62	89	89	89	89	77	77	62	62	89	89	89	89	77	77	62	62	62	62	62	62	46	46	46	46	46	46	46	46	62	62	62	62	62	62	62	62	62	62	62	62	
62	62	62	62	62	62	62	62	62	62	62	62	62	16	16	16	16	16	16	16	16	16	16	15	15	62	62	62	62	89	89	89	89	77	62	62	62	62	89	89	89	89	77	62	62	62	62	62	16	16	46	16	16	46	46	46	46	46	62	62	62	62	62	62	62	62	62	62	62	
62	62	62	62	62	62	62	62	62	62	62	62	16	16	16	139	16	16	16	16	16	16	16	16	15	15	62	62	62	89	89	89	89	77	62	62	62	62	89	89	89	89	77	62	62	62	62	62	16	73	46	65	16	46	46	46	46	46	62	62	62	62	62	62	62	62	62	62	62	
62	62	62	62	62	62	62	62	62	62	62	16	16	106	124	16	16	16	16	16	16	16	16	16	16	15	15	62	62	89	89	89	89	77	62	62	62	62	89	89	89	89	77	62	62	62	62	46	46	46	16	46	46	46	46	46	46	46	46	62	62	62	62	62	62	62	62	62	62	
62	62	62	62	62	62	62	62	62	62	62	16	16	139	16	16	16	16	16	16	16	16	16	16	16	16	15	62	62	89	89	89	89	77	62	62	62	62	89	89	89	89	77	62	62	77	77	77	16	16	16	16	16	77	77	46	46	46	46	46	62	62	62	62	62	62	62	62	62	
62	62	62	62	62	62	62	62	62	62	62	16	16	16	16	16	16	16	16	16	16	16	16	16	16	16	15	62	62	89	89	89	89	77	62	62	62	62	89	89	89	89	77	62	62	87	87	77	16	16	16	16	16	77	77	46	46	62	62	62	62	62	62	62	62	62	62	62	62	
62	62	62	62	62	62	62	62	62	62	62	16	16	16	16	16	16	16	16	16	16	16	16	16	16	16	15	62	62	89	89	89	89	77	62	62	62	62	89	89	89	89	77	62	62	62	89	89	89	17	17	17	89	89	102	46	63	62	62	62	62	62	62	62	62	62	62	62	62	
62	62	62	62	62	62	62	62	62	62	62	16	16	16	16	16	16	16	16	16	16	16	16	16	16	16	15	62	62	65	65	65	65	65	62	62	62	62	65	65	65	65	65	62	62	62	89	89	89	17	17	17	89	89	9	62	62	62	62	62	62	62	62	62	62	62	62	62	62	
62	62	62	62	62	62	62	62	62	62	62	16	16	16	16	16	16	16	16	16	16	16	16	16	16	16	13	62	62	65	65	65	65	65	62	62	62	62	65	65	65	65	65	62	62	62	89	89	89	17	17	17	89	89	9	62	62	62	62	62	62	62	62	62	62	62	62	62	62	
62	62	62	62	62	62	62	62	62	62	62	16	16	16	16	16	16	16	16	16	16	16	16	16	16	13	15	62	65	65	65	65	65	65	62	62	62	65	65	65	65	65	65	62	62	62	89	89	89	17	17	17	89	89	9	62	62	62	62	62	62	62	62	62	62	62	62	62	62	
62	62	62	62	62	62	62	62	62	62	62	62	16	16	16	16	16	16	16	16	16	15	15	15	15	15	62	65	65	65	65	65	65	65	62	62	65	65	65	65	65	65	65	62	62	62	62	82	82	136	136	136	82	82	62	62	62	62	62	62	62	62	62	62	62	62	62	62	62	
62	62	62	62	62	62	62	62	62	62	62	62	62	62	62	62	62	62	62	62	62	62	62	62	62	62	62	62	62	62	62	62	62	62	62	62	62	62	62	62	62	62	62	62	62	62	62	62	62	62	62	62	62	62	62	62	62	62	62	62	62	62	62	62	62	62	62	62	62	
62	62	62	62	62	62	62	62	62	62	62	62	62	62	62	62	62	62	62	62	62	62	62	62	62	62	62	62	62	62	62	62	62	62	62	62	62	62	62	62	62	62	62	62	62	62	62	62	62	62	62	62	62	62	62	62	62	62	62	62	62	62	62	62	62	62	62	62	62	
62	62	62	62	62	62	62	62	62	62	62	62	62	62	62	62	62	62	62	62	62	62	62	62	62	62	62	62	62	62	62	62	62	62	62	62	62	62	62	62	62	62	62	62	62	62	62	62	62	62	62	62	62	62	62	62	62	62	62	62	62	62	62	62	62	62	62	62	62	
62	62	62	62	62	62	62	62	62	62	62	62	62	62	62	62	62	62	62	62	62	62	62	62	62	62	62	62	46	62	62	62	62	62	62	62	62	62	62	62	62	62	62	62	62	62	62	62	62	62	62	62	62	62	62	62	62	62	62	62	62	62	62	62	62	62	62	62	62	
62	62	62	62	62	62	62	62	62	62	62	62	62	62	62	62	62	62	62	62	62	62	62	62	62	62	62	62	46	62	62	62	46	62	46	62	63	46	62	46	62	62	62	62	62	62	62	62	62	62	62	62	62	62	62	62	62	62	62	62	62	62	62	62	62	62	62	62	62	
62	62	62	62	62	62	62	62	62	62	62	62	62	62	62	62	62	62	62	62	62	62	62	62	62	62	62	62	46	62	62	46	46	62	56	62	63	62	62	62	62	62	62	62	62	62	62	62	62	62	62	62	62	62	62	62	62	62	62	62	62	62	62	62	62	62	62	62	62	
62	62	62	62	62	62	62	62	62	62	62	62	62	62	62	62	62	62	62	62	62	62	62	62	62	62	62	62	62	62	62	62	62	62	62	62	62	63	62	62	62	62	62	62	62	62	62	62	62	62	62	62	62	62	62	62	62	62	62	62	62	62	62	62	62	62	62	62	62	
62	62	62	62	62	62	62	62	62	62	62	62	62	62	62	62	62	62	62	62	62	62	62	46	46	46	46	62	46	46	62	46	62	62	46	41	62	46	46	46	46	62	46	46	62	46	42	62	62	62	62	62	62	62	62	62	62	62	62	62	62	62	62	62	62	62	62	62	62	
62	62	62	62	62	62	62	62	62	62	62	62	62	62	62	62	62	62	62	62	62	62	46	62	62	46	62	46	46	62	62	62	62	62	62	46	62	46	62	62	62	62	62	46	62	62	46	62	62	62	62	62	62	62	62	62	62	62	62	62	62	62	62	62	62	62	62	62	62	
62	62	62	62	62	62	62	62	62	62	62	62	62	62	62	62	62	62	62	62	62	62	62	62	62	62	62	62	62	62	62	62	62	62	62	62	62	62	62	62	62	62	62	62	62	62	62	62	62	62	62	62	62	62	62	62	62	62	62	62	62	62	62	62	62	62	62	62	62	
62	62	62	62	62	62	62	62	62	62	62	62	62	62	62	62	62	62	62	62	62	62	62	62	62	62	62	62	62	62	62	62	62	62	62	62	62	62	62	62	62	62	62	62	62	62	62	62	62	62	62	62	62	62	62	62	62	62	62	62	62	62	62	62	62	62	62	62	62	
62	62	62	62	62	62	62	62	62	62	62	62	62	62	62	62	62	62	62	62	62	62	62	62	62	62	62	62	62	62	62	62	62	62	62	62	62	62	62	62	62	62	62	62	62	62	62	62	62	62	62	62	62	62	62	62	62	62	62	62	62	62	62	62	62	62	62	62	62	
